data/lp_files/q3/86_8.lp
\ Model foo
\ LP format - for model browsing. Use MPS format to capture full model detail.
Minimize
  z
Subject To
 allocateEach[1]: x[1,1] + x[2,1] + x[3,1] + x[4,1] + x[5,1] = 1
 allocateEach[2]: x[1,2] + x[2,2] + x[3,2] + x[4,2] + x[5,2] = 1
 allocateEach[3]: x[1,3] + x[2,3] + x[3,3] + x[4,3] + x[5,3] = 1
 allocateEach[4]: x[1,4] + x[2,4] + x[3,4] + x[4,4] + x[5,4] = 1
 allocateEach[5]: x[1,5] + x[2,5] + x[3,5] + x[4,5] + x[5,5] = 1
 allocateEach[6]: x[1,6] + x[2,6] + x[3,6] + x[4,6] + x[5,6] = 1
 allocateAllCash: cashProportion[1] + cashProportion[2] + cashProportion[3]
   + cashProportion[4] + cashProportion[5] = 1
 findWorstP[1,2]: z + 0.2625619482096558 cashProportion[1]
   - 0.2625619482096558 cashProportion[2] + 0.0150316715350028 x[1,1]
   + 0.3064097935606682 x[1,2] + 0.0124716925399586 x[1,3]
   + 0.1745052348288424 x[1,4] + 0.14969313072303 x[1,5]
   + 0.0793265286028422 x[1,6] - 0.0150316715350028 x[2,1]
   - 0.3064097935606682 x[2,2] - 0.0124716925399586 x[2,3]
   - 0.1745052348288424 x[2,4] - 0.14969313072303 x[2,5]
   - 0.0793265286028422 x[2,6] >= 0
 findWorstP[1,3]: z + 0.2625619482096558 cashProportion[1]
   - 0.2625619482096558 cashProportion[3] + 0.0150316715350028 x[1,1]
   + 0.3064097935606682 x[1,2] + 0.0124716925399586 x[1,3]
   + 0.1745052348288424 x[1,4] + 0.14969313072303 x[1,5]
   + 0.0793265286028422 x[1,6] - 0.0150316715350028 x[3,1]
   - 0.3064097935606682 x[3,2] - 0.0124716925399586 x[3,3]
   - 0.1745052348288424 x[3,4] - 0.14969313072303 x[3,5]
   - 0.0793265286028422 x[3,6] >= 0
 findWorstP[1,4]: z + 0.2625619482096558 cashProportion[1]
   - 0.2625619482096558 cashProportion[4] + 0.0150316715350028 x[1,1]
   + 0.3064097935606682 x[1,2] + 0.0124716925399586 x[1,3]
   + 0.1745052348288424 x[1,4] + 0.14969313072303 x[1,5]
   + 0.0793265286028422 x[1,6] - 0.0150316715350028 x[4,1]
   - 0.3064097935606682 x[4,2] - 0.0124716925399586 x[4,3]
   - 0.1745052348288424 x[4,4] - 0.14969313072303 x[4,5]
   - 0.0793265286028422 x[4,6] >= 0
 findWorstP[1,5]: z + 0.2625619482096558 cashProportion[1]
   - 0.2625619482096558 cashProportion[5] + 0.0150316715350028 x[1,1]
   + 0.3064097935606682 x[1,2] + 0.0124716925399586 x[1,3]
   + 0.1745052348288424 x[1,4] + 0.14969313072303 x[1,5]
   + 0.0793265286028422 x[1,6] - 0.0150316715350028 x[5,1]
   - 0.3064097935606682 x[5,2] - 0.0124716925399586 x[5,3]
   - 0.1745052348288424 x[5,4] - 0.14969313072303 x[5,5]
   - 0.0793265286028422 x[5,6] >= 0
 findWorstP[2,1]: z - 0.2422187235073271 cashProportion[1]
   + 0.2422187235073271 cashProportion[2] - 0.1246518105849582 x[1,1]
   - 0.2625953736223809 x[1,2] - 0.2067639578539421 x[1,3]
   - 0.0377558435267046 x[1,4] - 0.0477473658713818 x[1,5]
   - 0.0782669250333051 x[1,6] + 0.1246518105849582 x[2,1]
   + 0.2625953736223809 x[2,2] + 0.2067639578539421 x[2,3]
   + 0.0377558435267046 x[2,4] + 0.0477473658713818 x[2,5]
   + 0.0782669250333051 x[2,6] >= 0
 findWorstP[2,3]: z + 0.2422187235073271 cashProportion[2]
   - 0.2422187235073271 cashProportion[3] + 0.1246518105849582 x[2,1]
   + 0.2625953736223809 x[2,2] + 0.2067639578539421 x[2,3]
   + 0.0377558435267046 x[2,4] + 0.0477473658713818 x[2,5]
   + 0.0782669250333051 x[2,6] - 0.1246518105849582 x[3,1]
   - 0.2625953736223809 x[3,2] - 0.2067639578539421 x[3,3]
   - 0.0377558435267046 x[3,4] - 0.0477473658713818 x[3,5]
   - 0.0782669250333051 x[3,6] >= 0
 findWorstP[2,4]: z + 0.2422187235073271 cashProportion[2]
   - 0.2422187235073271 cashProportion[4] + 0.1246518105849582 x[2,1]
   + 0.2625953736223809 x[2,2] + 0.2067639578539421 x[2,3]
   + 0.0377558435267046 x[2,4] + 0.0477473658713818 x[2,5]
   + 0.0782669250333051 x[2,6] - 0.1246518105849582 x[4,1]
   - 0.2625953736223809 x[4,2] - 0.2067639578539421 x[4,3]
   - 0.0377558435267046 x[4,4] - 0.0477473658713818 x[4,5]
   - 0.0782669250333051 x[4,6] >= 0
 findWorstP[2,5]: z + 0.2422187235073271 cashProportion[2]
   - 0.2422187235073271 cashProportion[5] + 0.1246518105849582 x[2,1]
   + 0.2625953736223809 x[2,2] + 0.2067639578539421 x[2,3]
   + 0.0377558435267046 x[2,4] + 0.0477473658713818 x[2,5]
   + 0.0782669250333051 x[2,6] - 0.1246518105849582 x[5,1]
   - 0.2625953736223809 x[5,2] - 0.2067639578539421 x[5,3]
   - 0.0377558435267046 x[5,4] - 0.0477473658713818 x[5,5]
   - 0.0782669250333051 x[5,6] >= 0
 findWorstP[3,1]: z - 0.2088173109550782 cashProportion[1]
   + 0.2088173109550782 cashProportion[3] - 0.0926626817363159 x[1,1]
   - 0.1066795437341756 x[1,2] - 0.0431990812038318 x[1,3]
   - 0.1236981545770144 x[1,4] - 0.2005690271723526 x[1,5]
   - 0.2243742006212315 x[1,6] + 0.0926626817363159 x[3,1]
   + 0.1066795437341756 x[3,2] + 0.0431990812038318 x[3,3]
   + 0.1236981545770144 x[3,4] + 0.2005690271723526 x[3,5]
   + 0.2243742006212315 x[3,6] >= 0
 findWorstP[3,2]: z - 0.2088173109550782 cashProportion[2]
   + 0.2088173109550782 cashProportion[3] - 0.0926626817363159 x[2,1]
   - 0.1066795437341756 x[2,2] - 0.0431990812038318 x[2,3]
   - 0.1236981545770144 x[2,4] - 0.2005690271723526 x[2,5]
   - 0.2243742006212315 x[2,6] + 0.0926626817363159 x[3,1]
   + 0.1066795437341756 x[3,2] + 0.0431990812038318 x[3,3]
   + 0.1236981545770144 x[3,4] + 0.2005690271723526 x[3,5]
   + 0.2243742006212315 x[3,6] >= 0
 findWorstP[3,4]: z + 0.2088173109550782 cashProportion[3]
   - 0.2088173109550782 cashProportion[4] + 0.0926626817363159 x[3,1]
   + 0.1066795437341756 x[3,2] + 0.0431990812038318 x[3,3]
   + 0.1236981545770144 x[3,4] + 0.2005690271723526 x[3,5]
   + 0.2243742006212315 x[3,6] - 0.0926626817363159 x[4,1]
   - 0.1066795437341756 x[4,2] - 0.0431990812038318 x[4,3]
   - 0.1236981545770144 x[4,4] - 0.2005690271723526 x[4,5]
   - 0.2243742006212315 x[4,6] >= 0
 findWorstP[3,5]: z + 0.2088173109550782 cashProportion[3]
   - 0.2088173109550782 cashProportion[5] + 0.0926626817363159 x[3,1]
   + 0.1066795437341756 x[3,2] + 0.0431990812038318 x[3,3]
   + 0.1236981545770144 x[3,4] + 0.2005690271723526 x[3,5]
   + 0.2243742006212315 x[3,6] - 0.0926626817363159 x[5,1]
   - 0.1066795437341756 x[5,2] - 0.0431990812038318 x[5,3]
   - 0.1236981545770144 x[5,4] - 0.2005690271723526 x[5,5]
   - 0.2243742006212315 x[5,6] >= 0
 findWorstP[4,1]: z - 0.2222592654331278 cashProportion[1]
   + 0.2222592654331278 cashProportion[4] - 0.1384397399566595 x[1,1]
   - 0.1371895315885981 x[1,2] - 0.1155470356170473 x[1,3]
   - 0.144079568817025 x[1,4] - 0.0964883036061566 x[1,5]
   - 0.1459965549813858 x[1,6] + 0.1384397399566595 x[4,1]
   + 0.1371895315885981 x[4,2] + 0.1155470356170473 x[4,3]
   + 0.144079568817025 x[4,4] + 0.0964883036061566 x[4,5]
   + 0.1459965549813858 x[4,6] >= 0
 findWorstP[4,2]: z - 0.2222592654331278 cashProportion[2]
   + 0.2222592654331278 cashProportion[4] - 0.1384397399566595 x[2,1]
   - 0.1371895315885981 x[2,2] - 0.1155470356170473 x[2,3]
   - 0.144079568817025 x[2,4] - 0.0964883036061566 x[2,5]
   - 0.1459965549813858 x[2,6] + 0.1384397399566595 x[4,1]
   + 0.1371895315885981 x[4,2] + 0.1155470356170473 x[4,3]
   + 0.144079568817025 x[4,4] + 0.0964883036061566 x[4,5]
   + 0.1459965549813858 x[4,6] >= 0
 findWorstP[4,3]: z - 0.2222592654331278 cashProportion[3]
   + 0.2222592654331278 cashProportion[4] - 0.1384397399566595 x[3,1]
   - 0.1371895315885981 x[3,2] - 0.1155470356170473 x[3,3]
   - 0.144079568817025 x[3,4] - 0.0964883036061566 x[3,5]
   - 0.1459965549813858 x[3,6] + 0.1384397399566595 x[4,1]
   + 0.1371895315885981 x[4,2] + 0.1155470356170473 x[4,3]
   + 0.144079568817025 x[4,4] + 0.0964883036061566 x[4,5]
   + 0.1459965549813858 x[4,6] >= 0
 findWorstP[4,5]: z + 0.2222592654331278 cashProportion[4]
   - 0.2222592654331278 cashProportion[5] + 0.1384397399566595 x[4,1]
   + 0.1371895315885981 x[4,2] + 0.1155470356170473 x[4,3]
   + 0.144079568817025 x[4,4] + 0.0964883036061566 x[4,5]
   + 0.1459965549813858 x[4,6] - 0.1384397399566595 x[5,1]
   - 0.1371895315885981 x[5,2] - 0.1155470356170473 x[5,3]
   - 0.144079568817025 x[5,4] - 0.0964883036061566 x[5,5]
   - 0.1459965549813858 x[5,6] >= 0
 findWorstP[5,1]: z - 0.2055498458376157 cashProportion[1]
   + 0.2055498458376157 cashProportion[5] - 0.1350462487153135 x[1,1]
   - 0.2073741007194245 x[1,2] - 0.0893371017471737 x[1,3]
   - 0.1736382322713258 x[1,4] - 0.13103802672148 x[1,5]
   - 0.058016443987667 x[1,6] + 0.1350462487153135 x[5,1]
   + 0.2073741007194245 x[5,2] + 0.0893371017471737 x[5,3]
   + 0.1736382322713258 x[5,4] + 0.13103802672148 x[5,5]
   + 0.058016443987667 x[5,6] >= 0
 findWorstP[5,2]: z - 0.2055498458376157 cashProportion[2]
   + 0.2055498458376157 cashProportion[5] - 0.1350462487153135 x[2,1]
   - 0.2073741007194245 x[2,2] - 0.0893371017471737 x[2,3]
   - 0.1736382322713258 x[2,4] - 0.13103802672148 x[2,5]
   - 0.058016443987667 x[2,6] + 0.1350462487153135 x[5,1]
   + 0.2073741007194245 x[5,2] + 0.0893371017471737 x[5,3]
   + 0.1736382322713258 x[5,4] + 0.13103802672148 x[5,5]
   + 0.058016443987667 x[5,6] >= 0
 findWorstP[5,3]: z - 0.2055498458376157 cashProportion[3]
   + 0.2055498458376157 cashProportion[5] - 0.1350462487153135 x[3,1]
   - 0.2073741007194245 x[3,2] - 0.0893371017471737 x[3,3]
   - 0.1736382322713258 x[3,4] - 0.13103802672148 x[3,5]
   - 0.058016443987667 x[3,6] + 0.1350462487153135 x[5,1]
   + 0.2073741007194245 x[5,2] + 0.0893371017471737 x[5,3]
   + 0.1736382322713258 x[5,4] + 0.13103802672148 x[5,5]
   + 0.058016443987667 x[5,6] >= 0
 findWorstP[5,4]: z - 0.2055498458376157 cashProportion[4]
   + 0.2055498458376157 cashProportion[5] - 0.1350462487153135 x[4,1]
   - 0.2073741007194245 x[4,2] - 0.0893371017471737 x[4,3]
   - 0.1736382322713258 x[4,4] - 0.13103802672148 x[4,5]
   - 0.058016443987667 x[4,6] + 0.1350462487153135 x[5,1]
   + 0.2073741007194245 x[5,2] + 0.0893371017471737 x[5,3]
   + 0.1736382322713258 x[5,4] + 0.13103802672148 x[5,5]
   + 0.058016443987667 x[5,6] >= 0
Bounds
 z <= 1
 -infinity <= cashProportion[1] <= 1
 -infinity <= cashProportion[2] <= 1
 -infinity <= cashProportion[3] <= 1
 -infinity <= cashProportion[4] <= 1
 -infinity <= cashProportion[5] <= 1
Binaries
 x[1,1] x[1,2] x[1,3] x[1,4] x[1,5] x[1,6] x[2,1] x[2,2] x[2,3] x[2,4]
 x[2,5] x[2,6] x[3,1] x[3,2] x[3,3] x[3,4] x[3,5] x[3,6] x[4,1] x[4,2]
 x[4,3] x[4,4] x[4,5] x[4,6] x[5,1] x[5,2] x[5,3] x[5,4] x[5,5] x[5,6]
End
