data/mps_files/q3/86_8.mps
NAME foo
ROWS
 N  OBJ
 E  allocateEach[1]
 E  allocateEach[2]
 E  allocateEach[3]
 E  allocateEach[4]
 E  allocateEach[5]
 E  allocateEach[6]
 E  allocateAllCash
 G  findWorstP[1,2]
 G  findWorstP[1,3]
 G  findWorstP[1,4]
 G  findWorstP[1,5]
 G  findWorstP[2,1]
 G  findWorstP[2,3]
 G  findWorstP[2,4]
 G  findWorstP[2,5]
 G  findWorstP[3,1]
 G  findWorstP[3,2]
 G  findWorstP[3,4]
 G  findWorstP[3,5]
 G  findWorstP[4,1]
 G  findWorstP[4,2]
 G  findWorstP[4,3]
 G  findWorstP[4,5]
 G  findWorstP[5,1]
 G  findWorstP[5,2]
 G  findWorstP[5,3]
 G  findWorstP[5,4]
COLUMNS
    z         OBJ       1
    z         findWorstP[1,2]  1
    z         findWorstP[1,3]  1
    z         findWorstP[1,4]  1
    z         findWorstP[1,5]  1
    z         findWorstP[2,1]  1
    z         findWorstP[2,3]  1
    z         findWorstP[2,4]  1
    z         findWorstP[2,5]  1
    z         findWorstP[3,1]  1
    z         findWorstP[3,2]  1
    z         findWorstP[3,4]  1
    z         findWorstP[3,5]  1
    z         findWorstP[4,1]  1
    z         findWorstP[4,2]  1
    z         findWorstP[4,3]  1
    z         findWorstP[4,5]  1
    z         findWorstP[5,1]  1
    z         findWorstP[5,2]  1
    z         findWorstP[5,3]  1
    z         findWorstP[5,4]  1
    cashProportion[1]  allocateAllCash  1
    cashProportion[1]  findWorstP[1,2]  2.6256194820965578e-01
    cashProportion[1]  findWorstP[1,3]  2.6256194820965578e-01
    cashProportion[1]  findWorstP[1,4]  2.6256194820965578e-01
    cashProportion[1]  findWorstP[1,5]  2.6256194820965578e-01
    cashProportion[1]  findWorstP[2,1]  -2.4221872350732712e-01
    cashProportion[1]  findWorstP[3,1]  -2.0881731095507819e-01
    cashProportion[1]  findWorstP[4,1]  -2.2225926543312777e-01
    cashProportion[1]  findWorstP[5,1]  -2.0554984583761565e-01
    cashProportion[2]  allocateAllCash  1
    cashProportion[2]  findWorstP[1,2]  -2.6256194820965578e-01
    cashProportion[2]  findWorstP[2,1]  2.4221872350732712e-01
    cashProportion[2]  findWorstP[2,3]  2.4221872350732712e-01
    cashProportion[2]  findWorstP[2,4]  2.4221872350732712e-01
    cashProportion[2]  findWorstP[2,5]  2.4221872350732712e-01
    cashProportion[2]  findWorstP[3,2]  -2.0881731095507819e-01
    cashProportion[2]  findWorstP[4,2]  -2.2225926543312777e-01
    cashProportion[2]  findWorstP[5,2]  -2.0554984583761565e-01
    cashProportion[3]  allocateAllCash  1
    cashProportion[3]  findWorstP[1,3]  -2.6256194820965578e-01
    cashProportion[3]  findWorstP[2,3]  -2.4221872350732712e-01
    cashProportion[3]  findWorstP[3,1]  2.0881731095507819e-01
    cashProportion[3]  findWorstP[3,2]  2.0881731095507819e-01
    cashProportion[3]  findWorstP[3,4]  2.0881731095507819e-01
    cashProportion[3]  findWorstP[3,5]  2.0881731095507819e-01
    cashProportion[3]  findWorstP[4,3]  -2.2225926543312777e-01
    cashProportion[3]  findWorstP[5,3]  -2.0554984583761565e-01
    cashProportion[4]  allocateAllCash  1
    cashProportion[4]  findWorstP[1,4]  -2.6256194820965578e-01
    cashProportion[4]  findWorstP[2,4]  -2.4221872350732712e-01
    cashProportion[4]  findWorstP[3,4]  -2.0881731095507819e-01
    cashProportion[4]  findWorstP[4,1]  2.2225926543312777e-01
    cashProportion[4]  findWorstP[4,2]  2.2225926543312777e-01
    cashProportion[4]  findWorstP[4,3]  2.2225926543312777e-01
    cashProportion[4]  findWorstP[4,5]  2.2225926543312777e-01
    cashProportion[4]  findWorstP[5,4]  -2.0554984583761565e-01
    cashProportion[5]  allocateAllCash  1
    cashProportion[5]  findWorstP[1,5]  -2.6256194820965578e-01
    cashProportion[5]  findWorstP[2,5]  -2.4221872350732712e-01
    cashProportion[5]  findWorstP[3,5]  -2.0881731095507819e-01
    cashProportion[5]  findWorstP[4,5]  -2.2225926543312777e-01
    cashProportion[5]  findWorstP[5,1]  2.0554984583761565e-01
    cashProportion[5]  findWorstP[5,2]  2.0554984583761565e-01
    cashProportion[5]  findWorstP[5,3]  2.0554984583761565e-01
    cashProportion[5]  findWorstP[5,4]  2.0554984583761565e-01
    MARKER    'MARKER'                 'INTORG'
    x[1,1]    allocateEach[1]  1
    x[1,1]    findWorstP[1,2]  1.5031671535002790e-02
    x[1,1]    findWorstP[1,3]  1.5031671535002790e-02
    x[1,1]    findWorstP[1,4]  1.5031671535002790e-02
    x[1,1]    findWorstP[1,5]  1.5031671535002790e-02
    x[1,1]    findWorstP[2,1]  -1.2465181058495819e-01
    x[1,1]    findWorstP[3,1]  -9.2662681736315936e-02
    x[1,1]    findWorstP[4,1]  -1.3843973995665945e-01
    x[1,1]    findWorstP[5,1]  -1.3504624871531345e-01
    x[1,2]    allocateEach[2]  1
    x[1,2]    findWorstP[1,2]  3.0640979356066822e-01
    x[1,2]    findWorstP[1,3]  3.0640979356066822e-01
    x[1,2]    findWorstP[1,4]  3.0640979356066822e-01
    x[1,2]    findWorstP[1,5]  3.0640979356066822e-01
    x[1,2]    findWorstP[2,1]  -2.6259537362238095e-01
    x[1,2]    findWorstP[3,1]  -1.0667954373417556e-01
    x[1,2]    findWorstP[4,1]  -1.3718953158859809e-01
    x[1,2]    findWorstP[5,1]  -2.0737410071942447e-01
    x[1,3]    allocateEach[3]  1
    x[1,3]    findWorstP[1,2]  1.2471692539958647e-02
    x[1,3]    findWorstP[1,3]  1.2471692539958647e-02
    x[1,3]    findWorstP[1,4]  1.2471692539958647e-02
    x[1,3]    findWorstP[1,5]  1.2471692539958647e-02
    x[1,3]    findWorstP[2,1]  -2.0676395785394205e-01
    x[1,3]    findWorstP[3,1]  -0.0431990812038318
    x[1,3]    findWorstP[4,1]  -1.1554703561704728e-01
    x[1,3]    findWorstP[5,1]  -8.9337101747173686e-02
    x[1,4]    allocateEach[4]  1
    x[1,4]    findWorstP[1,2]  1.7450523482884242e-01
    x[1,4]    findWorstP[1,3]  1.7450523482884242e-01
    x[1,4]    findWorstP[1,4]  1.7450523482884242e-01
    x[1,4]    findWorstP[1,5]  1.7450523482884242e-01
    x[1,4]    findWorstP[2,1]  -3.7755843526704608e-02
    x[1,4]    findWorstP[3,1]  -1.2369815457701443e-01
    x[1,4]    findWorstP[4,1]  -1.4407956881702502e-01
    x[1,4]    findWorstP[5,1]  -1.7363823227132577e-01
    x[1,5]    allocateEach[5]  1
    x[1,5]    findWorstP[1,2]  1.4969313072302998e-01
    x[1,5]    findWorstP[1,3]  1.4969313072302998e-01
    x[1,5]    findWorstP[1,4]  1.4969313072302998e-01
    x[1,5]    findWorstP[1,5]  1.4969313072302998e-01
    x[1,5]    findWorstP[2,1]  -4.7747365871381849e-02
    x[1,5]    findWorstP[3,1]  -2.0056902717235256e-01
    x[1,5]    findWorstP[4,1]  -9.6488303606156581e-02
    x[1,5]    findWorstP[5,1]  -1.3103802672147996e-01
    x[1,6]    allocateEach[6]  1
    x[1,6]    findWorstP[1,2]  7.9326528602842242e-02
    x[1,6]    findWorstP[1,3]  7.9326528602842242e-02
    x[1,6]    findWorstP[1,4]  7.9326528602842242e-02
    x[1,6]    findWorstP[1,5]  7.9326528602842242e-02
    x[1,6]    findWorstP[2,1]  -7.8266925033305068e-02
    x[1,6]    findWorstP[3,1]  -2.2437420062123148e-01
    x[1,6]    findWorstP[4,1]  -1.4599655498138578e-01
    x[1,6]    findWorstP[5,1]  -5.8016443987667012e-02
    x[2,1]    allocateEach[1]  1
    x[2,1]    findWorstP[1,2]  -1.5031671535002790e-02
    x[2,1]    findWorstP[2,1]  1.2465181058495819e-01
    x[2,1]    findWorstP[2,3]  1.2465181058495819e-01
    x[2,1]    findWorstP[2,4]  1.2465181058495819e-01
    x[2,1]    findWorstP[2,5]  1.2465181058495819e-01
    x[2,1]    findWorstP[3,2]  -9.2662681736315936e-02
    x[2,1]    findWorstP[4,2]  -1.3843973995665945e-01
    x[2,1]    findWorstP[5,2]  -1.3504624871531345e-01
    x[2,2]    allocateEach[2]  1
    x[2,2]    findWorstP[1,2]  -3.0640979356066822e-01
    x[2,2]    findWorstP[2,1]  2.6259537362238095e-01
    x[2,2]    findWorstP[2,3]  2.6259537362238095e-01
    x[2,2]    findWorstP[2,4]  2.6259537362238095e-01
    x[2,2]    findWorstP[2,5]  2.6259537362238095e-01
    x[2,2]    findWorstP[3,2]  -1.0667954373417556e-01
    x[2,2]    findWorstP[4,2]  -1.3718953158859809e-01
    x[2,2]    findWorstP[5,2]  -2.0737410071942447e-01
    x[2,3]    allocateEach[3]  1
    x[2,3]    findWorstP[1,2]  -1.2471692539958647e-02
    x[2,3]    findWorstP[2,1]  2.0676395785394205e-01
    x[2,3]    findWorstP[2,3]  2.0676395785394205e-01
    x[2,3]    findWorstP[2,4]  2.0676395785394205e-01
    x[2,3]    findWorstP[2,5]  2.0676395785394205e-01
    x[2,3]    findWorstP[3,2]  -0.0431990812038318
    x[2,3]    findWorstP[4,2]  -1.1554703561704728e-01
    x[2,3]    findWorstP[5,2]  -8.9337101747173686e-02
    x[2,4]    allocateEach[4]  1
    x[2,4]    findWorstP[1,2]  -1.7450523482884242e-01
    x[2,4]    findWorstP[2,1]  3.7755843526704608e-02
    x[2,4]    findWorstP[2,3]  3.7755843526704608e-02
    x[2,4]    findWorstP[2,4]  3.7755843526704608e-02
    x[2,4]    findWorstP[2,5]  3.7755843526704608e-02
    x[2,4]    findWorstP[3,2]  -1.2369815457701443e-01
    x[2,4]    findWorstP[4,2]  -1.4407956881702502e-01
    x[2,4]    findWorstP[5,2]  -1.7363823227132577e-01
    x[2,5]    allocateEach[5]  1
    x[2,5]    findWorstP[1,2]  -1.4969313072302998e-01
    x[2,5]    findWorstP[2,1]  4.7747365871381849e-02
    x[2,5]    findWorstP[2,3]  4.7747365871381849e-02
    x[2,5]    findWorstP[2,4]  4.7747365871381849e-02
    x[2,5]    findWorstP[2,5]  4.7747365871381849e-02
    x[2,5]    findWorstP[3,2]  -2.0056902717235256e-01
    x[2,5]    findWorstP[4,2]  -9.6488303606156581e-02
    x[2,5]    findWorstP[5,2]  -1.3103802672147996e-01
    x[2,6]    allocateEach[6]  1
    x[2,6]    findWorstP[1,2]  -7.9326528602842242e-02
    x[2,6]    findWorstP[2,1]  7.8266925033305068e-02
    x[2,6]    findWorstP[2,3]  7.8266925033305068e-02
    x[2,6]    findWorstP[2,4]  7.8266925033305068e-02
    x[2,6]    findWorstP[2,5]  7.8266925033305068e-02
    x[2,6]    findWorstP[3,2]  -2.2437420062123148e-01
    x[2,6]    findWorstP[4,2]  -1.4599655498138578e-01
    x[2,6]    findWorstP[5,2]  -5.8016443987667012e-02
    x[3,1]    allocateEach[1]  1
    x[3,1]    findWorstP[1,3]  -1.5031671535002790e-02
    x[3,1]    findWorstP[2,3]  -1.2465181058495819e-01
    x[3,1]    findWorstP[3,1]  9.2662681736315936e-02
    x[3,1]    findWorstP[3,2]  9.2662681736315936e-02
    x[3,1]    findWorstP[3,4]  9.2662681736315936e-02
    x[3,1]    findWorstP[3,5]  9.2662681736315936e-02
    x[3,1]    findWorstP[4,3]  -1.3843973995665945e-01
    x[3,1]    findWorstP[5,3]  -1.3504624871531345e-01
    x[3,2]    allocateEach[2]  1
    x[3,2]    findWorstP[1,3]  -3.0640979356066822e-01
    x[3,2]    findWorstP[2,3]  -2.6259537362238095e-01
    x[3,2]    findWorstP[3,1]  1.0667954373417556e-01
    x[3,2]    findWorstP[3,2]  1.0667954373417556e-01
    x[3,2]    findWorstP[3,4]  1.0667954373417556e-01
    x[3,2]    findWorstP[3,5]  1.0667954373417556e-01
    x[3,2]    findWorstP[4,3]  -1.3718953158859809e-01
    x[3,2]    findWorstP[5,3]  -2.0737410071942447e-01
    x[3,3]    allocateEach[3]  1
    x[3,3]    findWorstP[1,3]  -1.2471692539958647e-02
    x[3,3]    findWorstP[2,3]  -2.0676395785394205e-01
    x[3,3]    findWorstP[3,1]  0.0431990812038318
    x[3,3]    findWorstP[3,2]  0.0431990812038318
    x[3,3]    findWorstP[3,4]  0.0431990812038318
    x[3,3]    findWorstP[3,5]  0.0431990812038318
    x[3,3]    findWorstP[4,3]  -1.1554703561704728e-01
    x[3,3]    findWorstP[5,3]  -8.9337101747173686e-02
    x[3,4]    allocateEach[4]  1
    x[3,4]    findWorstP[1,3]  -1.7450523482884242e-01
    x[3,4]    findWorstP[2,3]  -3.7755843526704608e-02
    x[3,4]    findWorstP[3,1]  1.2369815457701443e-01
    x[3,4]    findWorstP[3,2]  1.2369815457701443e-01
    x[3,4]    findWorstP[3,4]  1.2369815457701443e-01
    x[3,4]    findWorstP[3,5]  1.2369815457701443e-01
    x[3,4]    findWorstP[4,3]  -1.4407956881702502e-01
    x[3,4]    findWorstP[5,3]  -1.7363823227132577e-01
    x[3,5]    allocateEach[5]  1
    x[3,5]    findWorstP[1,3]  -1.4969313072302998e-01
    x[3,5]    findWorstP[2,3]  -4.7747365871381849e-02
    x[3,5]    findWorstP[3,1]  2.0056902717235256e-01
    x[3,5]    findWorstP[3,2]  2.0056902717235256e-01
    x[3,5]    findWorstP[3,4]  2.0056902717235256e-01
    x[3,5]    findWorstP[3,5]  2.0056902717235256e-01
    x[3,5]    findWorstP[4,3]  -9.6488303606156581e-02
    x[3,5]    findWorstP[5,3]  -1.3103802672147996e-01
    x[3,6]    allocateEach[6]  1
    x[3,6]    findWorstP[1,3]  -7.9326528602842242e-02
    x[3,6]    findWorstP[2,3]  -7.8266925033305068e-02
    x[3,6]    findWorstP[3,1]  2.2437420062123148e-01
    x[3,6]    findWorstP[3,2]  2.2437420062123148e-01
    x[3,6]    findWorstP[3,4]  2.2437420062123148e-01
    x[3,6]    findWorstP[3,5]  2.2437420062123148e-01
    x[3,6]    findWorstP[4,3]  -1.4599655498138578e-01
    x[3,6]    findWorstP[5,3]  -5.8016443987667012e-02
    x[4,1]    allocateEach[1]  1
    x[4,1]    findWorstP[1,4]  -1.5031671535002790e-02
    x[4,1]    findWorstP[2,4]  -1.2465181058495819e-01
    x[4,1]    findWorstP[3,4]  -9.2662681736315936e-02
    x[4,1]    findWorstP[4,1]  1.3843973995665945e-01
    x[4,1]    findWorstP[4,2]  1.3843973995665945e-01
    x[4,1]    findWorstP[4,3]  1.3843973995665945e-01
    x[4,1]    findWorstP[4,5]  1.3843973995665945e-01
    x[4,1]    findWorstP[5,4]  -1.3504624871531345e-01
    x[4,2]    allocateEach[2]  1
    x[4,2]    findWorstP[1,4]  -3.0640979356066822e-01
    x[4,2]    findWorstP[2,4]  -2.6259537362238095e-01
    x[4,2]    findWorstP[3,4]  -1.0667954373417556e-01
    x[4,2]    findWorstP[4,1]  1.3718953158859809e-01
    x[4,2]    findWorstP[4,2]  1.3718953158859809e-01
    x[4,2]    findWorstP[4,3]  1.3718953158859809e-01
    x[4,2]    findWorstP[4,5]  1.3718953158859809e-01
    x[4,2]    findWorstP[5,4]  -2.0737410071942447e-01
    x[4,3]    allocateEach[3]  1
    x[4,3]    findWorstP[1,4]  -1.2471692539958647e-02
    x[4,3]    findWorstP[2,4]  -2.0676395785394205e-01
    x[4,3]    findWorstP[3,4]  -0.0431990812038318
    x[4,3]    findWorstP[4,1]  1.1554703561704728e-01
    x[4,3]    findWorstP[4,2]  1.1554703561704728e-01
    x[4,3]    findWorstP[4,3]  1.1554703561704728e-01
    x[4,3]    findWorstP[4,5]  1.1554703561704728e-01
    x[4,3]    findWorstP[5,4]  -8.9337101747173686e-02
    x[4,4]    allocateEach[4]  1
    x[4,4]    findWorstP[1,4]  -1.7450523482884242e-01
    x[4,4]    findWorstP[2,4]  -3.7755843526704608e-02
    x[4,4]    findWorstP[3,4]  -1.2369815457701443e-01
    x[4,4]    findWorstP[4,1]  1.4407956881702502e-01
    x[4,4]    findWorstP[4,2]  1.4407956881702502e-01
    x[4,4]    findWorstP[4,3]  1.4407956881702502e-01
    x[4,4]    findWorstP[4,5]  1.4407956881702502e-01
    x[4,4]    findWorstP[5,4]  -1.7363823227132577e-01
    x[4,5]    allocateEach[5]  1
    x[4,5]    findWorstP[1,4]  -1.4969313072302998e-01
    x[4,5]    findWorstP[2,4]  -4.7747365871381849e-02
    x[4,5]    findWorstP[3,4]  -2.0056902717235256e-01
    x[4,5]    findWorstP[4,1]  9.6488303606156581e-02
    x[4,5]    findWorstP[4,2]  9.6488303606156581e-02
    x[4,5]    findWorstP[4,3]  9.6488303606156581e-02
    x[4,5]    findWorstP[4,5]  9.6488303606156581e-02
    x[4,5]    findWorstP[5,4]  -1.3103802672147996e-01
    x[4,6]    allocateEach[6]  1
    x[4,6]    findWorstP[1,4]  -7.9326528602842242e-02
    x[4,6]    findWorstP[2,4]  -7.8266925033305068e-02
    x[4,6]    findWorstP[3,4]  -2.2437420062123148e-01
    x[4,6]    findWorstP[4,1]  1.4599655498138578e-01
    x[4,6]    findWorstP[4,2]  1.4599655498138578e-01
    x[4,6]    findWorstP[4,3]  1.4599655498138578e-01
    x[4,6]    findWorstP[4,5]  1.4599655498138578e-01
    x[4,6]    findWorstP[5,4]  -5.8016443987667012e-02
    x[5,1]    allocateEach[1]  1
    x[5,1]    findWorstP[1,5]  -1.5031671535002790e-02
    x[5,1]    findWorstP[2,5]  -1.2465181058495819e-01
    x[5,1]    findWorstP[3,5]  -9.2662681736315936e-02
    x[5,1]    findWorstP[4,5]  -1.3843973995665945e-01
    x[5,1]    findWorstP[5,1]  1.3504624871531345e-01
    x[5,1]    findWorstP[5,2]  1.3504624871531345e-01
    x[5,1]    findWorstP[5,3]  1.3504624871531345e-01
    x[5,1]    findWorstP[5,4]  1.3504624871531345e-01
    x[5,2]    allocateEach[2]  1
    x[5,2]    findWorstP[1,5]  -3.0640979356066822e-01
    x[5,2]    findWorstP[2,5]  -2.6259537362238095e-01
    x[5,2]    findWorstP[3,5]  -1.0667954373417556e-01
    x[5,2]    findWorstP[4,5]  -1.3718953158859809e-01
    x[5,2]    findWorstP[5,1]  2.0737410071942447e-01
    x[5,2]    findWorstP[5,2]  2.0737410071942447e-01
    x[5,2]    findWorstP[5,3]  2.0737410071942447e-01
    x[5,2]    findWorstP[5,4]  2.0737410071942447e-01
    x[5,3]    allocateEach[3]  1
    x[5,3]    findWorstP[1,5]  -1.2471692539958647e-02
    x[5,3]    findWorstP[2,5]  -2.0676395785394205e-01
    x[5,3]    findWorstP[3,5]  -0.0431990812038318
    x[5,3]    findWorstP[4,5]  -1.1554703561704728e-01
    x[5,3]    findWorstP[5,1]  8.9337101747173686e-02
    x[5,3]    findWorstP[5,2]  8.9337101747173686e-02
    x[5,3]    findWorstP[5,3]  8.9337101747173686e-02
    x[5,3]    findWorstP[5,4]  8.9337101747173686e-02
    x[5,4]    allocateEach[4]  1
    x[5,4]    findWorstP[1,5]  -1.7450523482884242e-01
    x[5,4]    findWorstP[2,5]  -3.7755843526704608e-02
    x[5,4]    findWorstP[3,5]  -1.2369815457701443e-01
    x[5,4]    findWorstP[4,5]  -1.4407956881702502e-01
    x[5,4]    findWorstP[5,1]  1.7363823227132577e-01
    x[5,4]    findWorstP[5,2]  1.7363823227132577e-01
    x[5,4]    findWorstP[5,3]  1.7363823227132577e-01
    x[5,4]    findWorstP[5,4]  1.7363823227132577e-01
    x[5,5]    allocateEach[5]  1
    x[5,5]    findWorstP[1,5]  -1.4969313072302998e-01
    x[5,5]    findWorstP[2,5]  -4.7747365871381849e-02
    x[5,5]    findWorstP[3,5]  -2.0056902717235256e-01
    x[5,5]    findWorstP[4,5]  -9.6488303606156581e-02
    x[5,5]    findWorstP[5,1]  1.3103802672147996e-01
    x[5,5]    findWorstP[5,2]  1.3103802672147996e-01
    x[5,5]    findWorstP[5,3]  1.3103802672147996e-01
    x[5,5]    findWorstP[5,4]  1.3103802672147996e-01
    x[5,6]    allocateEach[6]  1
    x[5,6]    findWorstP[1,5]  -7.9326528602842242e-02
    x[5,6]    findWorstP[2,5]  -7.8266925033305068e-02
    x[5,6]    findWorstP[3,5]  -2.2437420062123148e-01
    x[5,6]    findWorstP[4,5]  -1.4599655498138578e-01
    x[5,6]    findWorstP[5,1]  5.8016443987667012e-02
    x[5,6]    findWorstP[5,2]  5.8016443987667012e-02
    x[5,6]    findWorstP[5,3]  5.8016443987667012e-02
    x[5,6]    findWorstP[5,4]  5.8016443987667012e-02
    MARKER    'MARKER'                 'INTEND'
RHS
    RHS1      allocateEach[1]  1
    RHS1      allocateEach[2]  1
    RHS1      allocateEach[3]  1
    RHS1      allocateEach[4]  1
    RHS1      allocateEach[5]  1
    RHS1      allocateEach[6]  1
    RHS1      allocateAllCash  1
BOUNDS
 UP BND1      z         1
 MI BND1      cashProportion[1]
 UP BND1      cashProportion[1]  1
 MI BND1      cashProportion[2]
 UP BND1      cashProportion[2]  1
 MI BND1      cashProportion[3]
 UP BND1      cashProportion[3]  1
 MI BND1      cashProportion[4]
 UP BND1      cashProportion[4]  1
 MI BND1      cashProportion[5]
 UP BND1      cashProportion[5]  1
 BV BND1      x[1,1]  
 BV BND1      x[1,2]  
 BV BND1      x[1,3]  
 BV BND1      x[1,4]  
 BV BND1      x[1,5]  
 BV BND1      x[1,6]  
 BV BND1      x[2,1]  
 BV BND1      x[2,2]  
 BV BND1      x[2,3]  
 BV BND1      x[2,4]  
 BV BND1      x[2,5]  
 BV BND1      x[2,6]  
 BV BND1      x[3,1]  
 BV BND1      x[3,2]  
 BV BND1      x[3,3]  
 BV BND1      x[3,4]  
 BV BND1      x[3,5]  
 BV BND1      x[3,6]  
 BV BND1      x[4,1]  
 BV BND1      x[4,2]  
 BV BND1      x[4,3]  
 BV BND1      x[4,4]  
 BV BND1      x[4,5]  
 BV BND1      x[4,6]  
 BV BND1      x[5,1]  
 BV BND1      x[5,2]  
 BV BND1      x[5,3]  
 BV BND1      x[5,4]  
 BV BND1      x[5,5]  
 BV BND1      x[5,6]  
ENDATA
